
Route #1: 18 39 29 36 38 
Route #2: 21 30 24 46 25 45 47 23 48 
Route #3: 31 32 37 27 41 12 8 
Route #4: 26 43 11 42 13 40 16 
Route #5: 44 20 49 9 50 15 1 22 
Route #6: 7 6 14 2 34 17 10 
Route #7: 5 4 28 33 19 35 3 
cost 1281.32
total time is 5